c CNF file corresponding to a (partial) station packing problem.
p cnf 7085 229
1 2 3 4 5 6 7 8 9 10 11 12 13 14 0
-1 -2 0
-1 -3 0
-1 -4 0
-1 -5 0
-1 -6 0
-1 -7 0
-1 -8 0
-1 -9 0
-1 -10 0
-1 -11 0
-1 -12 0
-1 -13 0
-1 -14 0
-2 -3 0
-2 -4 0
-2 -5 0
-2 -6 0
-2 -7 0
-2 -8 0
-2 -9 0
-2 -10 0
-2 -11 0
-2 -12 0
-2 -13 0
-2 -14 0
-3 -4 0
-3 -5 0
-3 -6 0
-3 -7 0
-3 -8 0
-3 -9 0
-3 -10 0
-3 -11 0
-3 -12 0
-3 -13 0
-3 -14 0
-4 -5 0
-4 -6 0
-4 -7 0
-4 -8 0
-4 -9 0
-4 -10 0
-4 -11 0
-4 -12 0
-4 -13 0
-4 -14 0
-5 -6 0
-5 -7 0
-5 -8 0
-5 -9 0
-5 -10 0
-5 -11 0
-5 -12 0
-5 -13 0
-5 -14 0
-6 -7 0
-6 -8 0
-6 -9 0
-6 -10 0
-6 -11 0
-6 -12 0
-6 -13 0
-6 -14 0
-7 -8 0
-7 -9 0
-7 -10 0
-7 -11 0
-7 -12 0
-7 -13 0
-7 -14 0
-8 -9 0
-8 -10 0
-8 -11 0
-8 -12 0
-8 -13 0
-8 -14 0
-9 -10 0
-9 -11 0
-9 -12 0
-9 -13 0
-9 -14 0
-10 -11 0
-10 -12 0
-10 -13 0
-10 -14 0
-11 -12 0
-11 -13 0
-11 -14 0
-12 -13 0
-12 -14 0
-13 -14 0
7069 7070 7071 7072 7073 7074 7075 7076 7077 7078 7079 7080 7081 7082 7083 7084 7085 0
-7069 -7070 0
-7069 -7071 0
-7069 -7072 0
-7069 -7073 0
-7069 -7074 0
-7069 -7075 0
-7069 -7076 0
-7069 -7077 0
-7069 -7078 0
-7069 -7079 0
-7069 -7080 0
-7069 -7081 0
-7069 -7082 0
-7069 -7083 0
-7069 -7084 0
-7069 -7085 0
-7070 -7071 0
-7070 -7072 0
-7070 -7073 0
-7070 -7074 0
-7070 -7075 0
-7070 -7076 0
-7070 -7077 0
-7070 -7078 0
-7070 -7079 0
-7070 -7080 0
-7070 -7081 0
-7070 -7082 0
-7070 -7083 0
-7070 -7084 0
-7070 -7085 0
-7071 -7072 0
-7071 -7073 0
-7071 -7074 0
-7071 -7075 0
-7071 -7076 0
-7071 -7077 0
-7071 -7078 0
-7071 -7079 0
-7071 -7080 0
-7071 -7081 0
-7071 -7082 0
-7071 -7083 0
-7071 -7084 0
-7071 -7085 0
-7072 -7073 0
-7072 -7074 0
-7072 -7075 0
-7072 -7076 0
-7072 -7077 0
-7072 -7078 0
-7072 -7079 0
-7072 -7080 0
-7072 -7081 0
-7072 -7082 0
-7072 -7083 0
-7072 -7084 0
-7072 -7085 0
-7073 -7074 0
-7073 -7075 0
-7073 -7076 0
-7073 -7077 0
-7073 -7078 0
-7073 -7079 0
-7073 -7080 0
-7073 -7081 0
-7073 -7082 0
-7073 -7083 0
-7073 -7084 0
-7073 -7085 0
-7074 -7075 0
-7074 -7076 0
-7074 -7077 0
-7074 -7078 0
-7074 -7079 0
-7074 -7080 0
-7074 -7081 0
-7074 -7082 0
-7074 -7083 0
-7074 -7084 0
-7074 -7085 0
-7075 -7076 0
-7075 -7077 0
-7075 -7078 0
-7075 -7079 0
-7075 -7080 0
-7075 -7081 0
-7075 -7082 0
-7075 -7083 0
-7075 -7084 0
-7075 -7085 0
-7076 -7077 0
-7076 -7078 0
-7076 -7079 0
-7076 -7080 0
-7076 -7081 0
-7076 -7082 0
-7076 -7083 0
-7076 -7084 0
-7076 -7085 0
-7077 -7078 0
-7077 -7079 0
-7077 -7080 0
-7077 -7081 0
-7077 -7082 0
-7077 -7083 0
-7077 -7084 0
-7077 -7085 0
-7078 -7079 0
-7078 -7080 0
-7078 -7081 0
-7078 -7082 0
-7078 -7083 0
-7078 -7084 0
-7078 -7085 0
-7079 -7080 0
-7079 -7081 0
-7079 -7082 0
-7079 -7083 0
-7079 -7084 0
-7079 -7085 0
-7080 -7081 0
-7080 -7082 0
-7080 -7083 0
-7080 -7084 0
-7080 -7085 0
-7081 -7082 0
-7081 -7083 0
-7081 -7084 0
-7081 -7085 0
-7082 -7083 0
-7082 -7084 0
-7082 -7085 0
-7083 -7084 0
-7083 -7085 0
-7084 -7085 0
